
Gurobi 10.0.0 (win64, C++) logging started Wed Nov 29 07:53:29 2023

Set parameter TokenServer to value "141.30.89.215"
Warning: Gurobi version mismatch between C++ 10.0.3 and C library 10.0.0
Set parameter Threads to value 8
Set parameter LazyConstraints to value 1
Set parameter PreCrush to value 1
Set parameter TimeLimit to value 28800
Set parameter SolutionLimit to value 10000
Gurobi Optimizer version 10.0.0 build v10.0.0rc2 (win64)

CPU model: AMD EPYC 7513 32-Core Processor, instruction set [SSE2|AVX|AVX2]
Thread count: 16 physical cores, 16 logical processors, using up to 8 threads

Optimize a model with 232 rows, 441 columns and 1260 nonzeros
Model fingerprint: 0x3b98c0f7
Variable types: 0 continuous, 441 integer (441 binary)
Coefficient statistics:
  Matrix range     [1e+00, 1e+00]
  Objective range  [6e+00, 6e+01]
  Bounds range     [1e+00, 1e+00]
  RHS range        [1e+00, 4e+00]

User MIP start produced solution with objective 381.453 (0.00s)
Loaded user MIP start with objective 381.453

Presolve removed 2 rows and 23 columns
Presolve time: 0.00s
Presolved: 230 rows, 418 columns, 1194 nonzeros
Variable types: 0 continuous, 418 integer (418 binary)

Root relaxation: objective 2.923362e+02, 68 iterations, 0.00 seconds (0.00 work units)

    Nodes    |    Current Node    |     Objective Bounds      |     Work
 Expl Unexpl |  Obj  Depth IntInf | Incumbent    BestBd   Gap | It/Node Time

     0     0  292.33623    0    -  381.45307  292.33623  23.4%     -    0s
     0     0  307.94455    0    -  381.45307  307.94455  19.3%     -    0s
     0     0  319.25762    0    -  381.45307  319.25762  16.3%     -    0s
     0     0  320.93098    0    -  381.45307  320.93098  15.9%     -    0s
     0     0  321.37940    0   26  381.45307  321.37940  15.7%     -    0s
     0     0  335.46779    0   22  381.45307  335.46779  12.1%     -    0s
     0     0  344.54549    0    -  381.45307  344.54549  9.68%     -    0s
     0     0  345.42593    0   39  381.45307  345.42593  9.44%     -    0s
     0     0  346.98725    0    -  381.45307  346.98725  9.04%     -    0s
     0     0  348.24153    0    -  381.45307  348.24153  8.71%     -    0s
     0     0  348.55866    0   50  381.45307  348.55866  8.62%     -    0s
     0     0  349.32166    0   64  381.45307  349.32166  8.42%     -    0s
     0     0  349.49699    0   54  381.45307  349.49699  8.38%     -    0s
     0     0  349.50668    0   48  381.45307  349.50668  8.37%     -    0s
     0     0  349.74806    0   54  381.45307  349.74806  8.31%     -    0s
     0     2  349.76728    0   49  381.45307  349.76728  8.31%     -    0s
   319   295 infeasible   31       381.45307  354.49421  7.07%  14.4    5s
*  570   479              15     364.0018869  354.56947  2.59%  12.2    6s
*  975   433              13     362.2714829  356.31655  1.64%  12.1    7s

Cutting planes:
  User: 134
  Zero half: 3
  Lazy constraints: 125

Explored 2031 nodes (23284 simplex iterations) in 7.89 seconds (0.47 work units)
Thread count was 8 (of 16 available processors)

Solution count 3: 362.271 364.002 381.453 

Optimal solution found (tolerance 1.00e-04)
Best objective 3.622714828967e+02, best bound 3.622714828967e+02, gap 0.0000%

User-callback calls 4423, time in user-callback 7.41 sec
### START EXACT APPROACH ###
ProblemVariant: 3
### START PREPROCESSING ###
## Start infeasible path procedure ## 
Deleted arcs: 2
Infeasible tail paths: 0
Infeasible 2-node combinations: 1
## Start extended infeasible path procedure ##
Deleted arcs: 2
Infeasible tail paths: 0
Infeasible 2-node combinations: 1
## Start start solution procedure ##
Start solution with 4 Vehicles and total costs 381.453 in 0.735148 s.
### END PREPROCESSING ###
Route 0 0-1-19-10-12-18-16-0 : weight util 0.964706 | volume util 0.727356 | infeasible with packing heuristic | feasible with CP model
Route 1 0-2-5-20-11-6-0 : weight util 0.952941 | volume util 0.553267 | feasible with packing heuristic | feasible with CP model
Route 2 0-7-9-3-15-4-0 : weight util 0.988235 | volume util 0.324600 | feasible with packing heuristic | feasible with CP model
Route 3 0-17-13-14-8-0 : weight util 0.964706 | volume util 0.635511 | feasible with packing heuristic | feasible with CP model
